\ENCODING=ISO-8859-1
\Problem name: ilog.cplex

Minimize
 obj1: 97045 x1 + 106157 x2 + 101979 x3 + 93928 x4 + 109385 x5 + 103310 x6
       + 105007 x7 + 98727 x8 + 101508 x9 + 106902 x10 + 91703 x11 + 90106 x12
       + 97765 x13 + 96963 x14 + 103299 x15 + 96862 x16 + 103860 x17
       + 99707 x18 + 105311 x19 + 108995 x20 + 108315 x21 + 98906 x22
       + 103823 x23 + 95983 x24 + 109172 x25 + 104494 x26 + 100715 x27
       + 98168 x28 + 97742 x29 + 106667 x30 + 107886 x31 + 95065 x32
       + 97888 x33 + 101222 x34 + 90092 x35 + 107233 x36 + 96741 x37
       + 105075 x38 + 96212 x39 + 106789 x40 + 90707 x41 + 109616 x42
       + 109515 x43 + 95757 x44 + 109246 x45 + 103984 x46 + 98971 x47
       + 101122 x48 + 108154 x49 + 100368 x50 + 105660 x51 + 90804 x52
       + 103912 x53 + 109058 x54 + 91044 x55 + 95735 x56 + 91189 x57
       + 102259 x58 + 107143 x59 + 109778 x60 + 91458 x61 + 94159 x62
       + 94646 x63 + 93080 x64 + 109293 x65 + 108180 x66 + 96272 x67
       + 99973 x68 + 95981 x69 + 106444 x70 + 99779 x71 + 96442 x72
       + 105761 x73 + 104979 x74 + 102930 x75 + 97210 x76 + 104005 x77
       + 104104 x78 + 94397 x79 + 104785 x80 + 98396 x81 + 98217 x82
       + 99094 x83 + 102875 x84 + 107030 x85 + 97872 x86 + 105057 x87
       + 105928 x88 + 90349 x89 + 98747 x90 + 95431 x91 + 92684 x92 + 91013 x93
       + 108814 x94 + 96640 x95 + 91170 x96 + 108678 x97 + 92425 x98
       + 96959 x99 + 102744 x100 + 105068 x101 + 107977 x102 + 108504 x103
       + 93605 x104 + 108840 x105 + 104450 x106 + 99993 x107 + 103585 x108
       + 109433 x109 + 101370 x110 + 97725 x111 + 104134 x112 + 94426 x113
       + 106560 x114 + 97793 x115 + 100037 x116 + 95896 x117 + 106592 x118
       + 93882 x119 + 92736 x120 + 107044 x121 + 98885 x122 + 92440 x123
       + 94834 x124 + 107583 x125 + 92566 x126 + 99545 x127 + 90772 x128
       + 96474 x129 + 100430 x130 + 97823 x131 + 97960 x132 + 109575 x133
       + 92919 x134 + 103029 x135 + 103732 x136 + 95026 x137 + 97195 x138
       + 91316 x139 + 106289 x140 + 104879 x141 + 101659 x142 + 107501 x143
       + 100408 x144 + 98290 x145 + 102784 x146 + 97676 x147 + 93997 x148
       + 103037 x149 + 91495 x150 + 103546 x151 + 94383 x152 + 91057 x153
       + 103523 x154 + 102651 x155 + 100705 x156 + 93243 x157 + 90986 x158
       + 95971 x159 + 91968 x160 + 108941 x161 + 90929 x162 + 92406 x163
       + 109050 x164 + 96336 x165 + 90612 x166 + 98234 x167 + 93375 x168
       + 101405 x169 + 99057 x170 + 108903 x171 + 104961 x172 + 95119 x173
       + 109700 x174 + 100350 x175 + 98216 x176 + 101262 x177 + 99933 x178
       + 107554 x179 + 105113 x180 + 102272 x181 + 90721 x182 + 95289 x183
       + 108480 x184 + 101001 x185 + 96479 x186 + 106059 x187 + 104520 x188
       + 97484 x189 + 99081 x190 + 107775 x191 + 97700 x192 + 94085 x193
       + 90233 x194 + 109715 x195 + 101003 x196 + 92119 x197 + 92121 x198
       + 99877 x199 + 99586 x200 + 101470 x201 + 102092 x202 + 106739 x203
       + 107685 x204 + 93073 x205 + 98283 x206 + 93737 x207 + 106905 x208
       + 96562 x209 + 90766 x210 + 93997 x211 + 106096 x212 + 97250 x213
       + 101728 x214 + 90068 x215 + 99776 x216 + 94165 x217 + 97737 x218
       + 106228 x219 + 109412 x220 + 103981 x221 + 97326 x222 + 109382 x223
       + 109873 x224 + 94461 x225 + 97938 x226 + 108690 x227 + 91965 x228
       + 105434 x229 + 107675 x230 + 103720 x231 + 91207 x232 + 105330 x233
       + 109378 x234 + 96287 x235 + 102872 x236 + 96960 x237 + 107217 x238
       + 92100 x239 + 103800 x240 + 92597 x241 + 94344 x242 + 103541 x243
       + 97882 x244 + 101597 x245 + 91764 x246 + 109284 x247 + 105505 x248
       + 106288 x249 + 109898 x250 + 90931 x251 + 91239 x252 + 100935 x253
       + 103334 x254 + 107401 x255 + 97158 x256 + 102707 x257 + 104358 x258
       + 96260 x259 + 104968 x260 + 90888 x261 + 91768 x262 + 99108 x263
       + 98915 x264 + 102584 x265 + 96536 x266 + 102292 x267 + 96809 x268
       + 91844 x269 + 91945 x270 + 95349 x271 + 107022 x272 + 95232 x273
       + 97682 x274 + 98475 x275 + 96502 x276 + 93606 x277 + 104914 x278
       + 99916 x279 + 107704 x280 + 97234 x281 + 102504 x282 + 94305 x283
       + 100769 x284 + 109375 x285 + 93296 x286 + 103809 x287 + 101381 x288
       + 102043 x289 + 93805 x290 + 95340 x291 + 104437 x292 + 106929 x293
       + 90645 x294 + 99170 x295 + 98990 x296 + 104321 x297 + 102690 x298
       + 106936 x299 + 51986 x300 + 19037 x301 + 21828 x302 + 19238 x303
       + 21577 x304 + 18335 x305 + 21580 x306 + 21888 x307 + 20610 x308
       + 21131 x309 + 19336 x310 + 20917 x311 + 18885 x312 + 21045 x313
       + 20591 x314 + 18289 x315 + 19296 x316 + 19965 x317 + 21965 x318
       + 18202 x319 + 18096 x320 + 21091 x321 + 21867 x322 + 20112 x323
       + 21877 x324 + 18670 x325 + 21568 x326 + 20257 x327 + 19122 x328
       + 19070 x329 + 21868 x330 + 19171 x331 + 19686 x332 + 21350 x333
       + 18017 x334 + 18359 x335 + 19736 x336 + 20364 x337 + 19389 x338
       + 18382 x339 + 18239 x340 + 19680 x341 + 18628 x342 + 19013 x343
       + 19938 x344 + 19250 x345 + 19590 x346 + 21990 x347 + 21112 x348
       + 21732 x349 + 20382 x350 + 20037 x351 + 20014 x352 + 21781 x353
       + 21132 x354 + 18411 x355 + 19961 x356 + 20357 x357 + 21853 x358
       + 21181 x359 + 13952 x360
Subject To
 c1:   x2 + x7 - x12 - x16 + x28 + x30 - x36 - x37 + x44 + x50 - x56  = 0
 c2:   x62 + x67 - x72 - x76 + x88 + x90 - x96 - x97 + x104 + x110 - x116  = 0
 c3:   x122 + x127 - x132 - x136 + x148 + x150 - x156 - x157 + x164 + x170
       - x176  = 0
 c4:   x182 + x187 - x192 - x196 + x208 + x210 - x216 - x217 + x224 + x230
       - x236  = 0
 c5:   x242 + x247 - x252 - x256 + x268 + x270 - x276 - x277 + x284 + x290
       - x296  = 0
 c6:   - x5 + x24 - x26 + x51 + x52  = 0
 c7:   - x65 + x84 - x86 + x111 + x112  = 1
 c8:   - x125 + x144 - x146 + x171 + x172  = 0
 c9:   - x185 + x204 - x206 + x231 + x232  = 0
 c10:  - x245 + x264 - x266 + x291 + x292  = 0
 c11:  x5 - x14 - x17 + x40 - x43 + x47 - x49 + x56  = 0
 c12:  x65 - x74 - x77 + x100 - x103 + x107 - x109 + x116  = 0
 c13:  x125 - x134 - x137 + x160 - x163 + x167 - x169 + x176  = 0
 c14:  x185 - x194 - x197 + x220 - x223 + x227 - x229 + x236  = 0
 c15:  x245 - x254 - x257 + x280 - x283 + x287 - x289 + x296  = 0
 c16:  x3 + x6 + x12 + x17 + x19 - x29 - x41 + x42 - x48  = 0
 c17:  x63 + x66 + x72 + x77 + x79 - x89 - x101 + x102 - x108  = 0
 c18:  x123 + x126 + x132 + x137 + x139 - x149 - x161 + x162 - x168  = 0
 c19:  x183 + x186 + x192 + x197 + x199 - x209 - x221 + x222 - x228  = 0
 c20:  x243 + x246 + x252 + x257 + x259 - x269 - x281 + x282 - x288  = -1
 c21:  - x7 + x18 - x20 - x31 - x32 + x34 + x43 + x48  = 0
 c22:  - x67 + x78 - x80 - x91 - x92 + x94 + x103 + x108  = 0
 c23:  - x127 + x138 - x140 - x151 - x152 + x154 + x163 + x168  = 1
 c24:  - x187 + x198 - x200 - x211 - x212 + x214 + x223 + x228  = 0
 c25:  - x247 + x258 - x260 - x271 - x272 + x274 + x283 + x288  = 0
 c26:  x1 + x15 - x25 - x27 + x32 + x36 + x53 - x55 + x59  = 1
 c27:  x61 + x75 - x85 - x87 + x92 + x96 + x113 - x115 + x119  = 0
 c28:  x121 + x135 - x145 - x147 + x152 + x156 + x173 - x175 + x179  = 0
 c29:  x181 + x195 - x205 - x207 + x212 + x216 + x233 - x235 + x239  = 0
 c30:  x241 + x255 - x265 - x267 + x272 + x276 + x293 - x295 + x299  = 0
 c31:  - x10 - x11 + x25 - x45 + x54  = 0
 c32:  - x70 - x71 + x85 - x105 + x114  = 0
 c33:  - x130 - x131 + x145 - x165 + x174  = 0
 c34:  - x190 - x191 + x205 - x225 + x234  = -1
 c35:  - x250 - x251 + x265 - x285 + x294  = 0
 c36:  x9 - x18 + x20 + x33 - x51 + x55  = 0
 c37:  x69 - x78 + x80 + x93 - x111 + x115  = 0
 c38:  x129 - x138 + x140 + x153 - x171 + x175  = 0
 c39:  x189 - x198 + x200 + x213 - x231 + x235  = 1
 c40:  x249 - x258 + x260 + x273 - x291 + x295  = 0
 c41:  x11 + x22 - x28 - x47 + x49 - x58 + x60  = 0
 c42:  x71 + x82 - x88 - x107 + x109 - x118 + x120  = 0
 c43:  x131 + x142 - x148 - x167 + x169 - x178 + x180  = -1
 c44:  x191 + x202 - x208 - x227 + x229 - x238 + x240  = 0
 c45:  x251 + x262 - x268 - x287 + x289 - x298 + x300  = 0
 c46:  x4 + x14 - x15 + x21 - x23 - x39 - x42 - x57 - x60  = 0
 c47:  x64 + x74 - x75 + x81 - x83 - x99 - x102 - x117 - x120  = -1
 c48:  x124 + x134 - x135 + x141 - x143 - x159 - x162 - x177 - x180  = 0
 c49:  x184 + x194 - x195 + x201 - x203 - x219 - x222 - x237 - x240  = 0
 c50:  x244 + x254 - x255 + x261 - x263 - x279 - x282 - x297 - x300  = 0
 c51:  - x13 + x16 - x22 + x23 - x35 + x41 + x45 - x50 + x58  = 0
 c52:  - x73 + x76 - x82 + x83 - x95 + x101 + x105 - x110 + x118  = 0
 c53:  - x133 + x136 - x142 + x143 - x155 + x161 + x165 - x170 + x178  = 0
 c54:  - x193 + x196 - x202 + x203 - x215 + x221 + x225 - x230 + x238  = 0
 c55:  - x253 + x256 - x262 + x263 - x275 + x281 + x285 - x290 + x298  = 0
 c56:  - x9 - x19 + x26 + x27 + x29 - x34 - x38 - x40 - x44  = 0
 c57:  - x69 - x79 + x86 + x87 + x89 - x94 - x98 - x100 - x104  = 0
 c58:  - x129 - x139 + x146 + x147 + x149 - x154 - x158 - x160 - x164  = 0
 c59:  - x189 - x199 + x206 + x207 + x209 - x214 - x218 - x220 - x224  = 0
 c60:  - x249 - x259 + x266 + x267 + x269 - x274 - x278 - x280 - x284  = 0
 c61:  - x4 - x6 - x24 - x30 + x35 + x37 + x46 - x53 + x57  = -1
 c62:  - x64 - x66 - x84 - x90 + x95 + x97 + x106 - x113 + x117  = 0
 c63:  - x124 - x126 - x144 - x150 + x155 + x157 + x166 - x173 + x177  = 0
 c64:  - x184 - x186 - x204 - x210 + x215 + x217 + x226 - x233 + x237  = 0
 c65:  - x244 - x246 - x264 - x270 + x275 + x277 + x286 - x293 + x297  = 0
 c66:  x8 + x31 - x46 - x59  = 0
 c67:  x68 + x91 - x106 - x119  = 0
 c68:  x128 + x151 - x166 - x179  = 0
 c69:  x188 + x211 - x226 - x239  = 0
 c70:  x248 + x271 - x286 - x299  = 0
 c71:  - x1 - x2 - x3 - x8 + x10 + x13 - x21 - x33 + x38 + x39 - x52 - x54  = 0
 c72:  - x61 - x62 - x63 - x68 + x70 + x73 - x81 - x93 + x98 + x99 - x112
       - x114  = 0
 c73:  - x121 - x122 - x123 - x128 + x130 + x133 - x141 - x153 + x158 + x159
       - x172 - x174  = 0
 c74:  - x181 - x182 - x183 - x188 + x190 + x193 - x201 - x213 + x218 + x219
       - x232 - x234  = 0
 c75:  - x241 - x242 - x243 - x248 + x250 + x253 - x261 - x273 + x278 + x279
       - x292 - x294  = 1
 c76:  4 x1 + 4 x61 + 4 x121 + 4 x181 + 4 x241 - 2 x301 <= 0
 c77:  4 x2 + 4 x62 + 4 x122 + 4 x182 + 4 x242 - 2 x302 <= 0
 c78:  4 x3 + 4 x63 + 4 x123 + 4 x183 + 4 x243 - 2 x303 <= 0
 c79:  4 x4 + 4 x64 + 4 x124 + 4 x184 + 4 x244 - 2 x304 <= 0
 c80:  4 x5 + 4 x65 + 4 x125 + 4 x185 + 4 x245 - 2 x305 <= 0
 c81:  4 x6 + 4 x66 + 4 x126 + 4 x186 + 4 x246 - 2 x306 <= 0
 c82:  4 x7 + 4 x67 + 4 x127 + 4 x187 + 4 x247 - 2 x307 <= 0
 c83:  4 x8 + 4 x68 + 4 x128 + 4 x188 + 4 x248 - 2 x308 <= 0
 c84:  4 x9 + 4 x69 + 4 x129 + 4 x189 + 4 x249 - 2 x309 <= 0
 c85:  4 x10 + 4 x70 + 4 x130 + 4 x190 + 4 x250 - 2 x310 <= 0
 c86:  4 x11 + 4 x71 + 4 x131 + 4 x191 + 4 x251 - 2 x311 <= 0
 c87:  4 x12 + 4 x72 + 4 x132 + 4 x192 + 4 x252 - 2 x312 <= 0
 c88:  4 x13 + 4 x73 + 4 x133 + 4 x193 + 4 x253 - 2 x313 <= 0
 c89:  4 x14 + 4 x74 + 4 x134 + 4 x194 + 4 x254 - 2 x314 <= 0
 c90:  4 x15 + 4 x75 + 4 x135 + 4 x195 + 4 x255 - 2 x315 <= 0
 c91:  4 x16 + 4 x76 + 4 x136 + 4 x196 + 4 x256 - 2 x316 <= 0
 c92:  4 x17 + 4 x77 + 4 x137 + 4 x197 + 4 x257 - 2 x317 <= 0
 c93:  4 x18 + 4 x78 + 4 x138 + 4 x198 + 4 x258 - 2 x318 <= 0
 c94:  4 x19 + 4 x79 + 4 x139 + 4 x199 + 4 x259 - 2 x319 <= 0
 c95:  4 x20 + 4 x80 + 4 x140 + 4 x200 + 4 x260 - 2 x320 <= 0
 c96:  4 x21 + 4 x81 + 4 x141 + 4 x201 + 4 x261 - 2 x321 <= 0
 c97:  4 x22 + 4 x82 + 4 x142 + 4 x202 + 4 x262 - 2 x322 <= 0
 c98:  4 x23 + 4 x83 + 4 x143 + 4 x203 + 4 x263 - 2 x323 <= 0
 c99:  4 x24 + 4 x84 + 4 x144 + 4 x204 + 4 x264 - 2 x324 <= 0
 c100: 4 x25 + 4 x85 + 4 x145 + 4 x205 + 4 x265 - 2 x325 <= 0
 c101: 4 x26 + 4 x86 + 4 x146 + 4 x206 + 4 x266 - 2 x326 <= 0
 c102: 4 x27 + 4 x87 + 4 x147 + 4 x207 + 4 x267 - 2 x327 <= 0
 c103: 4 x28 + 4 x88 + 4 x148 + 4 x208 + 4 x268 - 2 x328 <= 0
 c104: 4 x29 + 4 x89 + 4 x149 + 4 x209 + 4 x269 - 2 x329 <= 0
 c105: 4 x30 + 4 x90 + 4 x150 + 4 x210 + 4 x270 - 2 x330 <= 0
 c106: 4 x31 + 4 x91 + 4 x151 + 4 x211 + 4 x271 - 2 x331 <= 0
 c107: 4 x32 + 4 x92 + 4 x152 + 4 x212 + 4 x272 - 2 x332 <= 0
 c108: 4 x33 + 4 x93 + 4 x153 + 4 x213 + 4 x273 - 2 x333 <= 0
 c109: 4 x34 + 4 x94 + 4 x154 + 4 x214 + 4 x274 - 2 x334 <= 0
 c110: 4 x35 + 4 x95 + 4 x155 + 4 x215 + 4 x275 - 2 x335 <= 0
 c111: 4 x36 + 4 x96 + 4 x156 + 4 x216 + 4 x276 - 2 x336 <= 0
 c112: 4 x37 + 4 x97 + 4 x157 + 4 x217 + 4 x277 - 2 x337 <= 0
 c113: 4 x38 + 4 x98 + 4 x158 + 4 x218 + 4 x278 - 2 x338 <= 0
 c114: 4 x39 + 4 x99 + 4 x159 + 4 x219 + 4 x279 - 2 x339 <= 0
 c115: 4 x40 + 4 x100 + 4 x160 + 4 x220 + 4 x280 - 2 x340 <= 0
 c116: 4 x41 + 4 x101 + 4 x161 + 4 x221 + 4 x281 - 2 x341 <= 0
 c117: 4 x42 + 4 x102 + 4 x162 + 4 x222 + 4 x282 - 2 x342 <= 0
 c118: 4 x43 + 4 x103 + 4 x163 + 4 x223 + 4 x283 - 2 x343 <= 0
 c119: 4 x44 + 4 x104 + 4 x164 + 4 x224 + 4 x284 - 2 x344 <= 0
 c120: 4 x45 + 4 x105 + 4 x165 + 4 x225 + 4 x285 - 2 x345 <= 0
 c121: 4 x46 + 4 x106 + 4 x166 + 4 x226 + 4 x286 - 2 x346 <= 0
 c122: 4 x47 + 4 x107 + 4 x167 + 4 x227 + 4 x287 - 2 x347 <= 0
 c123: 4 x48 + 4 x108 + 4 x168 + 4 x228 + 4 x288 - 2 x348 <= 0
 c124: 4 x49 + 4 x109 + 4 x169 + 4 x229 + 4 x289 - 2 x349 <= 0
 c125: 4 x50 + 4 x110 + 4 x170 + 4 x230 + 4 x290 - 2 x350 <= 0
 c126: 4 x51 + 4 x111 + 4 x171 + 4 x231 + 4 x291 - 2 x351 <= 0
 c127: 4 x52 + 4 x112 + 4 x172 + 4 x232 + 4 x292 - 2 x352 <= 0
 c128: 4 x53 + 4 x113 + 4 x173 + 4 x233 + 4 x293 - 2 x353 <= 0
 c129: 4 x54 + 4 x114 + 4 x174 + 4 x234 + 4 x294 - 2 x354 <= 0
 c130: 4 x55 + 4 x115 + 4 x175 + 4 x235 + 4 x295 - 2 x355 <= 0
 c131: 4 x56 + 4 x116 + 4 x176 + 4 x236 + 4 x296 - 2 x356 <= 0
 c132: 4 x57 + 4 x117 + 4 x177 + 4 x237 + 4 x297 - 2 x357 <= 0
 c133: 4 x58 + 4 x118 + 4 x178 + 4 x238 + 4 x298 - 2 x358 <= 0
 c134: 4 x59 + 4 x119 + 4 x179 + 4 x239 + 4 x299 - 2 x359 <= 0
 c135: 4 x60 + 4 x120 + 4 x180 + 4 x240 + 4 x300 - 2 x360 <= 0
Bounds
 0 <= x1 <= 1
 0 <= x2 <= 1
 0 <= x3 <= 1
 0 <= x4 <= 1
 0 <= x5 <= 1
 0 <= x6 <= 1
 0 <= x7 <= 1
 0 <= x8 <= 1
 0 <= x9 <= 1
 0 <= x10 <= 1
 0 <= x11 <= 1
 0 <= x12 <= 1
 0 <= x13 <= 1
 0 <= x14 <= 1
 0 <= x15 <= 1
 0 <= x16 <= 1
 0 <= x17 <= 1
 0 <= x18 <= 1
 0 <= x19 <= 1
 0 <= x20 <= 1
 0 <= x21 <= 1
 0 <= x22 <= 1
 0 <= x23 <= 1
 0 <= x24 <= 1
 0 <= x25 <= 1
 0 <= x26 <= 1
 0 <= x27 <= 1
 0 <= x28 <= 1
 0 <= x29 <= 1
 0 <= x30 <= 1
 0 <= x31 <= 1
 0 <= x32 <= 1
 0 <= x33 <= 1
 0 <= x34 <= 1
 0 <= x35 <= 1
 0 <= x36 <= 1
 0 <= x37 <= 1
 0 <= x38 <= 1
 0 <= x39 <= 1
 0 <= x40 <= 1
 0 <= x41 <= 1
 0 <= x42 <= 1
 0 <= x43 <= 1
 0 <= x44 <= 1
 0 <= x45 <= 1
 0 <= x46 <= 1
 0 <= x47 <= 1
 0 <= x48 <= 1
 0 <= x49 <= 1
 0 <= x50 <= 1
 0 <= x51 <= 1
 0 <= x52 <= 1
 0 <= x53 <= 1
 0 <= x54 <= 1
 0 <= x55 <= 1
 0 <= x56 <= 1
 0 <= x57 <= 1
 0 <= x58 <= 1
 0 <= x59 <= 1
 0 <= x60 <= 1
 0 <= x61 <= 1
 0 <= x62 <= 1
 0 <= x63 <= 1
 0 <= x64 <= 1
 0 <= x65 <= 1
 0 <= x66 <= 1
 0 <= x67 <= 1
 0 <= x68 <= 1
 0 <= x69 <= 1
 0 <= x70 <= 1
 0 <= x71 <= 1
 0 <= x72 <= 1
 0 <= x73 <= 1
 0 <= x74 <= 1
 0 <= x75 <= 1
 0 <= x76 <= 1
 0 <= x77 <= 1
 0 <= x78 <= 1
 0 <= x79 <= 1
 0 <= x80 <= 1
 0 <= x81 <= 1
 0 <= x82 <= 1
 0 <= x83 <= 1
 0 <= x84 <= 1
 0 <= x85 <= 1
 0 <= x86 <= 1
 0 <= x87 <= 1
 0 <= x88 <= 1
 0 <= x89 <= 1
 0 <= x90 <= 1
 0 <= x91 <= 1
 0 <= x92 <= 1
 0 <= x93 <= 1
 0 <= x94 <= 1
 0 <= x95 <= 1
 0 <= x96 <= 1
 0 <= x97 <= 1
 0 <= x98 <= 1
 0 <= x99 <= 1
 0 <= x100 <= 1
 0 <= x101 <= 1
 0 <= x102 <= 1
 0 <= x103 <= 1
 0 <= x104 <= 1
 0 <= x105 <= 1
 0 <= x106 <= 1
 0 <= x107 <= 1
 0 <= x108 <= 1
 0 <= x109 <= 1
 0 <= x110 <= 1
 0 <= x111 <= 1
 0 <= x112 <= 1
 0 <= x113 <= 1
 0 <= x114 <= 1
 0 <= x115 <= 1
 0 <= x116 <= 1
 0 <= x117 <= 1
 0 <= x118 <= 1
 0 <= x119 <= 1
 0 <= x120 <= 1
 0 <= x121 <= 1
 0 <= x122 <= 1
 0 <= x123 <= 1
 0 <= x124 <= 1
 0 <= x125 <= 1
 0 <= x126 <= 1
 0 <= x127 <= 1
 0 <= x128 <= 1
 0 <= x129 <= 1
 0 <= x130 <= 1
 0 <= x131 <= 1
 0 <= x132 <= 1
 0 <= x133 <= 1
 0 <= x134 <= 1
 0 <= x135 <= 1
 0 <= x136 <= 1
 0 <= x137 <= 1
 0 <= x138 <= 1
 0 <= x139 <= 1
 0 <= x140 <= 1
 0 <= x141 <= 1
 0 <= x142 <= 1
 0 <= x143 <= 1
 0 <= x144 <= 1
 0 <= x145 <= 1
 0 <= x146 <= 1
 0 <= x147 <= 1
 0 <= x148 <= 1
 0 <= x149 <= 1
 0 <= x150 <= 1
 0 <= x151 <= 1
 0 <= x152 <= 1
 0 <= x153 <= 1
 0 <= x154 <= 1
 0 <= x155 <= 1
 0 <= x156 <= 1
 0 <= x157 <= 1
 0 <= x158 <= 1
 0 <= x159 <= 1
 0 <= x160 <= 1
 0 <= x161 <= 1
 0 <= x162 <= 1
 0 <= x163 <= 1
 0 <= x164 <= 1
 0 <= x165 <= 1
 0 <= x166 <= 1
 0 <= x167 <= 1
 0 <= x168 <= 1
 0 <= x169 <= 1
 0 <= x170 <= 1
 0 <= x171 <= 1
 0 <= x172 <= 1
 0 <= x173 <= 1
 0 <= x174 <= 1
 0 <= x175 <= 1
 0 <= x176 <= 1
 0 <= x177 <= 1
 0 <= x178 <= 1
 0 <= x179 <= 1
 0 <= x180 <= 1
 0 <= x181 <= 1
 0 <= x182 <= 1
 0 <= x183 <= 1
 0 <= x184 <= 1
 0 <= x185 <= 1
 0 <= x186 <= 1
 0 <= x187 <= 1
 0 <= x188 <= 1
 0 <= x189 <= 1
 0 <= x190 <= 1
 0 <= x191 <= 1
 0 <= x192 <= 1
 0 <= x193 <= 1
 0 <= x194 <= 1
 0 <= x195 <= 1
 0 <= x196 <= 1
 0 <= x197 <= 1
 0 <= x198 <= 1
 0 <= x199 <= 1
 0 <= x200 <= 1
 0 <= x201 <= 1
 0 <= x202 <= 1
 0 <= x203 <= 1
 0 <= x204 <= 1
 0 <= x205 <= 1
 0 <= x206 <= 1
 0 <= x207 <= 1
 0 <= x208 <= 1
 0 <= x209 <= 1
 0 <= x210 <= 1
 0 <= x211 <= 1
 0 <= x212 <= 1
 0 <= x213 <= 1
 0 <= x214 <= 1
 0 <= x215 <= 1
 0 <= x216 <= 1
 0 <= x217 <= 1
 0 <= x218 <= 1
 0 <= x219 <= 1
 0 <= x220 <= 1
 0 <= x221 <= 1
 0 <= x222 <= 1
 0 <= x223 <= 1
 0 <= x224 <= 1
 0 <= x225 <= 1
 0 <= x226 <= 1
 0 <= x227 <= 1
 0 <= x228 <= 1
 0 <= x229 <= 1
 0 <= x230 <= 1
 0 <= x231 <= 1
 0 <= x232 <= 1
 0 <= x233 <= 1
 0 <= x234 <= 1
 0 <= x235 <= 1
 0 <= x236 <= 1
 0 <= x237 <= 1
 0 <= x238 <= 1
 0 <= x239 <= 1
 0 <= x240 <= 1
 0 <= x241 <= 1
 0 <= x242 <= 1
 0 <= x243 <= 1
 0 <= x244 <= 1
 0 <= x245 <= 1
 0 <= x246 <= 1
 0 <= x247 <= 1
 0 <= x248 <= 1
 0 <= x249 <= 1
 0 <= x250 <= 1
 0 <= x251 <= 1
 0 <= x252 <= 1
 0 <= x253 <= 1
 0 <= x254 <= 1
 0 <= x255 <= 1
 0 <= x256 <= 1
 0 <= x257 <= 1
 0 <= x258 <= 1
 0 <= x259 <= 1
 0 <= x260 <= 1
 0 <= x261 <= 1
 0 <= x262 <= 1
 0 <= x263 <= 1
 0 <= x264 <= 1
 0 <= x265 <= 1
 0 <= x266 <= 1
 0 <= x267 <= 1
 0 <= x268 <= 1
 0 <= x269 <= 1
 0 <= x270 <= 1
 0 <= x271 <= 1
 0 <= x272 <= 1
 0 <= x273 <= 1
 0 <= x274 <= 1
 0 <= x275 <= 1
 0 <= x276 <= 1
 0 <= x277 <= 1
 0 <= x278 <= 1
 0 <= x279 <= 1
 0 <= x280 <= 1
 0 <= x281 <= 1
 0 <= x282 <= 1
 0 <= x283 <= 1
 0 <= x284 <= 1
 0 <= x285 <= 1
 0 <= x286 <= 1
 0 <= x287 <= 1
 0 <= x288 <= 1
 0 <= x289 <= 1
 0 <= x290 <= 1
 0 <= x291 <= 1
 0 <= x292 <= 1
 0 <= x293 <= 1
 0 <= x294 <= 1
 0 <= x295 <= 1
 0 <= x296 <= 1
 0 <= x297 <= 1
 0 <= x298 <= 1
 0 <= x299 <= 1
 0 <= x300 <= 1
 0 <= x301 <= 1
 0 <= x302 <= 1
 0 <= x303 <= 1
 0 <= x304 <= 1
 0 <= x305 <= 1
 0 <= x306 <= 1
 0 <= x307 <= 1
 0 <= x308 <= 1
 0 <= x309 <= 1
 0 <= x310 <= 1
 0 <= x311 <= 1
 0 <= x312 <= 1
 0 <= x313 <= 1
 0 <= x314 <= 1
 0 <= x315 <= 1
 0 <= x316 <= 1
 0 <= x317 <= 1
 0 <= x318 <= 1
 0 <= x319 <= 1
 0 <= x320 <= 1
 0 <= x321 <= 1
 0 <= x322 <= 1
 0 <= x323 <= 1
 0 <= x324 <= 1
 0 <= x325 <= 1
 0 <= x326 <= 1
 0 <= x327 <= 1
 0 <= x328 <= 1
 0 <= x329 <= 1
 0 <= x330 <= 1
 0 <= x331 <= 1
 0 <= x332 <= 1
 0 <= x333 <= 1
 0 <= x334 <= 1
 0 <= x335 <= 1
 0 <= x336 <= 1
 0 <= x337 <= 1
 0 <= x338 <= 1
 0 <= x339 <= 1
 0 <= x340 <= 1
 0 <= x341 <= 1
 0 <= x342 <= 1
 0 <= x343 <= 1
 0 <= x344 <= 1
 0 <= x345 <= 1
 0 <= x346 <= 1
 0 <= x347 <= 1
 0 <= x348 <= 1
 0 <= x349 <= 1
 0 <= x350 <= 1
 0 <= x351 <= 1
 0 <= x352 <= 1
 0 <= x353 <= 1
 0 <= x354 <= 1
 0 <= x355 <= 1
 0 <= x356 <= 1
 0 <= x357 <= 1
 0 <= x358 <= 1
 0 <= x359 <= 1
 0 <= x360 <= 1
Binaries
 x301  x302  x303  x304  x305  x306  x307  x308  x309  x310  x311  x312  x313 
 x314  x315  x316  x317  x318  x319  x320  x321  x322  x323  x324  x325  x326 
 x327  x328  x329  x330  x331  x332  x333  x334  x335  x336  x337  x338  x339 
 x340  x341  x342  x343  x344  x345  x346  x347  x348  x349  x350  x351  x352 
 x353  x354  x355  x356  x357  x358  x359  x360 
End
